c clasp version 2.1.1
c Reading from p77.cnf
c Solving...
s SATISFIABLE

c Models        : 1+    
c Time          : 2.006s (Solving: 0.53s 1st Model: 0.52s Unsat: 0.00s)
c CPU Time      : 2.000s
c Choices       : 22013
c Conflicts     : 963
c Restarts      : 2      (Average: 481.50 Last: 688)

c Variables     : 220746 (Eliminated: 70900 Frozen:    0)
c Constraints   : 240342 (Binary: 65.9% Ternary: 33.5% Other:  0.6%)
c Lemmas        : 963    (Binary:  0.2% Ternary:  0.5% Other: 99.3%)
c   Conflict    : 963    (Average Length: 40.3) 
c   Loop        : 0      (Average Length: 0.0) 
c   Other       : 0      (Average Length: 0.0)
c   Deleted     : 0     
